(set-info :status sat) ; swine result
(set-logic ALL)
(declare-fun i1 () Int)
(declare-fun it579 () Int)
(declare-fun it580 () Int)
(declare-fun it15 () Int)
(declare-fun it14 () Int)
(declare-fun it581 () Int)
(declare-fun it582 () Int)
(declare-fun it13 () Int)
(declare-fun bt633 () Bool)
(declare-fun bt634 () Bool)
(declare-fun bt635 () Bool)
(declare-fun bt636 () Bool)
(declare-fun it17 () Int)
(declare-fun it16 () Int)
(declare-fun it18 () Int)
(declare-fun bt25 () Bool)
(declare-fun bt28 () Bool)
(declare-fun bt26 () Bool)
(declare-fun bt27 () Bool)
(declare-fun it588 () Int)
(declare-fun it589 () Int)
(declare-fun it590 () Int)
(declare-fun it591 () Int)
(declare-fun bt637 () Bool)
(declare-fun bt638 () Bool)
(declare-fun bt639 () Bool)
(declare-fun bt640 () Bool)
(declare-fun it356 () Int)
(declare-fun it665 () Int)
(declare-fun it666 () Int)
(declare-fun it667 () Int)
(declare-fun it668 () Int)
(declare-fun bt709 () Bool)
(declare-fun bt710 () Bool)
(declare-fun bt711 () Bool)
(declare-fun bt712 () Bool)
(declare-fun bt643 () Bool)
(declare-fun it594 () Int)
(declare-fun bt642 () Bool)
(declare-fun bt641 () Bool)
(declare-fun it593 () Int)
(declare-fun bt644 () Bool)
(declare-fun it592 () Int)
(declare-fun it715 () Int)
(declare-fun it716 () Int)
(declare-fun it717 () Int)
(declare-fun it718 () Int)
(declare-fun bt753 () Bool)
(declare-fun bt754 () Bool)
(declare-fun bt755 () Bool)
(declare-fun bt756 () Bool)
(declare-fun bt760 () Bool)
(declare-fun bt759 () Bool)
(declare-fun bt757 () Bool)
(declare-fun it720 () Int)
(declare-fun bt758 () Bool)
(declare-fun it719 () Int)
(declare-fun it721 () Int)
(declare-fun it723 () Int)
(declare-fun it724 () Int)
(declare-fun it725 () Int)
(declare-fun it726 () Int)
(declare-fun bt761 () Bool)
(declare-fun bt762 () Bool)
(declare-fun bt763 () Bool)
(declare-fun bt764 () Bool)
(declare-fun it728 () Int)
(declare-fun bt768 () Bool)
(declare-fun it729 () Int)
(declare-fun bt765 () Bool)
(declare-fun bt767 () Bool)
(declare-fun it727 () Int)
(declare-fun bt766 () Bool)
(declare-fun it739 () Int)
(declare-fun it740 () Int)
(declare-fun it741 () Int)
(declare-fun it742 () Int)
(declare-fun bt781 () Bool)
(declare-fun bt782 () Bool)
(declare-fun bt783 () Bool)
(declare-fun bt784 () Bool)
(declare-fun it743 () Int)
(declare-fun bt786 () Bool)
(declare-fun bt785 () Bool)
(declare-fun bt787 () Bool)
(declare-fun it744 () Int)
(declare-fun bt788 () Bool)
(declare-fun it745 () Int)
(assert (= (+ i1 (- 1)) 0))
(assert (= (+ it579 (- 2)) 0))
(assert (= (+ (* it15 (- 1)) it580) 0))
(assert (= (+ it581 (* it14 (- 1))) 0))
(assert (= (+ (* it13 (- 1)) it582) 0))
(assert (or (and false bt633) (not bt633)))
(assert (or (and false (not bt634)) bt634))
(assert (or (and false bt635) (not bt635)))
(assert (or (and false bt636) (not bt636)))
(assert (and bt27
     (not bt26)
     (not bt28)
     (not bt25)
     (= (+ it18 (- 1)) 0)
     (= (+ it579 (- 2)) 0)
     (= (+ (* it16 (- 1)) it582) 0)
     (not bt633)
     (= (+ it581 (* it17 (- 1))) 0)
     bt634
     (not bt635)
     (not bt636)))
(assert (= (+ it588 (- 2)) 0))
(assert (= (+ (* it18 (- 1)) it589) 0))
(assert (= (+ it590 (* it17 (- 1))) 0))
(assert (= (+ (* it16 (- 1)) it591) 0))
(assert (or (and bt27 bt637) (and (not bt27) (not bt637))))
(assert (or (and bt28 bt638) (and (not bt28) (not bt638))))
(assert (or (and (not bt26) (not bt639)) (and bt26 bt639)))
(assert (or (and (not bt25) (not bt640)) (and bt25 bt640)))
(assert (let ((a!1 (+ (* (+ 0 it589) (exp 3 (+ it356 (- 1))) (+ 0 (- 1)))
              (+ 0 it591))))
  (and (> a!1 (+ 0 0))
       (> (+ (* it589 (- 1)) it591) 0)
       (>= (+ (* it588 (- 1)) 2) 0)
       bt637
       (not bt638)
       (>= (* it590 (- 1)) 0)
       (>= (+ it588 (- 2)) 0)
       (not bt640)
       (not bt639)
       (>= (+ it356 (- 1)) 0))))
(assert (= (+ (* it588 (- 1)) it665) 0))
(assert (= (+ (* (+ 0 it589) (exp 3 it356) (+ 0 (- 1))) (+ 0 it666))
   (+ 0 0)))
(assert (= (+ (* it590 (- 1)) it667) 0))
(assert (= (+ it668 (* it591 (- 1))) 0))
(assert (or (and false (not bt709)) bt709))
(assert (or (and false bt710) (not bt710)))
(assert (or (and false bt711) (not bt711)))
(assert (or (and false bt712) (not bt712)))
(assert (and (not bt710)
     (not bt712)
     (= (+ (* it592 (- 1)) it666) 0)
     bt644
     (not bt711)
     (= (+ (* it593 (- 1)) it667) 0)
     (not bt641)
     (= (+ it665 (- 2)) 0)
     (not bt642)
     (= (+ it668 (* it594 (- 1))) 0)
     (<= (+ it668 (* it666 (- 1))) 0)
     bt709
     (not bt643)))
(assert (= (+ it715 (- 2)) 0))
(assert (= (+ (* it592 (- 1)) it716) 0))
(assert (= (+ (* it593 (- 1)) it717) 0))
(assert (= (+ it718 (* it594 (- 1))) 0))
(assert (or (and bt642 bt753) (and (not bt753) (not bt642))))
(assert (or (and (not bt641) (not bt754)) (and bt641 bt754)))
(assert (or (and bt643 bt755) (and (not bt755) (not bt643))))
(assert (or (and (not bt756) (not bt644)) (and bt644 bt756)))
(assert (and (= (+ (* it721 (- 1)) it718) 0)
     (= (+ (* it719 (- 1)) it716) 0)
     (= (+ it715 (- 2)) 0)
     (not bt754)
     (> it716 0)
     (not bt758)
     (= (+ (* it720 (- 1)) it717) 0)
     (not bt753)
     bt757
     (not bt759)
     bt756
     bt760))
(assert (= (+ it723 (- 2)) 0))
(assert (= (+ it724 (* it719 (- 1))) 0))
(assert (= (+ it725 (* it720 (- 1))) 0))
(assert (= (+ it726 (* it721 (- 1))) 0))
(assert (or (and (not bt761) (not bt758)) (and bt761 bt758)))
(assert (or (and (not bt762) (not bt757)) (and bt762 bt757)))
(assert (or (and (not bt763) (not bt759)) (and bt763 bt759)))
(assert (or (and (not bt764) (not bt760)) (and bt764 bt760)))
(assert (and bt764
     bt766
     (= (+ (* it727 (- 1)) it724) 0)
     (not bt767)
     (not bt765)
     (= (+ (* it729 (- 1)) it726) 0)
     bt768
     (= (+ (* it728 (- 1)) it725) 0)
     bt762
     (= (+ it723 (- 2)) 0)
     (not bt761)))
(assert (= (+ it739 (- 2)) 0))
(assert (= (+ (* it727 (- 1)) it740) 0))
(assert (= (+ it741 (* it728 (- 1))) 0))
(assert (= (+ (* it729 (- 1)) it742) 0))
(assert (or (and bt781 bt766) (and (not bt766) (not bt781))))
(assert (or (and (not bt782) (not bt765)) (and bt782 bt765)))
(assert (or (and (not bt767) (not bt783)) (and bt767 bt783)))
(assert (or (and (not bt784) (not bt768)) (and bt784 bt768)))
(assert (let ((a!1 (and (= (+ (* it745 (- 1)) it742) 0) (not bt788)))
      (a!3 (and (= (+ (* it745 (- 1)) it742) 0) (not bt786)))
      (a!7 (and (= (+ (* it745 (- 1)) it742) 0)
                (= (+ it741 (* it744 (- 1))) 0)
                (not bt787)))
      (a!20 (and (= (+ (* it743 (- 1)) (* it740 3)) 0)
                 (= (+ (* it745 (- 1)) it742) 0)
                 (not bt788)
                 (= (+ it741 (* it744 (- 1))) 0)
                 bt787
                 bt786
                 bt785)))
(let ((a!2 (and a!1
                (= (+ it743 (- 1)) 0)
                (= (+ it741 (* it744 (- 1))) 0)
                (not bt787)
                (not bt785)
                bt786))
      (a!4 (and (and a!3 (not bt788)) (= (+ it741 (* it744 (- 1))) 0)))
      (a!6 (and (and a!3 (not bt788))
                (= (+ (* it743 (- 1)) (* it740 2)) 0)
                (= (+ it741 (* it744 (- 1))) 0)
                bt787
                bt785))
      (a!8 (and a!7 (not bt785) bt786 (= (+ (* it743 (- 1)) it740) 0) bt788))
      (a!9 (and a!1 (= (+ it741 (* it744 (- 1))) 0)))
      (a!12 (and a!3 (= (+ it741 (* it744 (- 1))) 0) (not bt787)))
      (a!18 (and a!7 bt786 (= (+ (* it743 (- 1)) it740) 0) bt785 bt788)))
(let ((a!5 (and a!4 (not bt787) (not bt785) (= (+ (* it743 (- 1)) it740) 0)))
      (a!10 (and (and a!9 (not bt787))
                 bt786
                 (= (+ (* it743 (- 1)) it740) 0)
                 bt785))
      (a!13 (and a!12 (= (+ (* it743 (- 1)) it740) 0) bt785 bt788))
      (a!14 (and a!9 (not bt785) bt787 bt786 (= (+ (* it743 (- 1)) it740) 0)))
      (a!15 (and a!12 (not bt785) (= (+ (* it743 (- 1)) it740) 0) bt788))
      (a!17 (and a!4 bt787 (= (+ (* it743 (- 1)) it740) 0) bt785))
      (a!19 (and a!4 (not bt785) bt787 (= (+ (* it743 (- 1)) it740) 0)))
      (a!21 (and (and a!9 (not bt787))
                 (not bt785)
                 bt786
                 (= (+ (* it743 (- 1)) it740) 0))))
(let ((a!11 (or a!10
                (<= (+ it742 (* it740 (- 1))) 0)
                (not bt781)
                bt784
                bt782
                bt783))
      (a!16 (or a!15
                (not bt781)
                (> (+ it742 (* it740 (- 1))) 0)
                bt784
                bt782
                bt783)))
  (and (or (or bt781 bt784) a!2 bt783 (not bt782))
       (= (+ it739 (- 2)) 0)
       (or (or bt781 bt784) bt782 a!5 bt783)
       (or (or (or bt781 bt784) (not bt783)) bt782 a!6)
       (or bt781 (not bt784) a!8 bt783 (not bt782))
       a!11
       (or bt781 (<= it740 0) a!13 (not bt784) bt782 bt783)
       (or a!14 (not bt781) bt784 (> it741 0) bt783 (not bt782))
       (or (not bt781) (not bt784) bt782 a!5 bt783)
       a!16
       (or a!17 (not bt781) bt784 (not bt783) (not bt782))
       (or a!18 (not bt781) (not bt784) bt783 (not bt782))
       (or (<= it741 0) (not bt781) bt784 a!19 bt783 (not bt782))
       (or bt781 a!18 (> it740 0) (not bt784) bt782 bt783)
       (or (not bt781) bt784 (not bt783) a!20 bt782)
       (or (or (or bt781 bt784) (not bt783)) a!21 (not bt782))))))))
(check-sat)
